300
75 75
1 52 59
2 52 962
3 52 451
4 52 596
5 52 193
6 52 705
7 52 251
8 51 556
9 51 370
10 51 957
11 51 492
12 51 358
13 50 314
14 50 215
15 50 832
16 50 949
17 50 639
18 50 47
19 50 129
20 50 462
21 50 671
22 50 400
23 50 178
24 50 786
25 50 430
26 49 589
27 49 259
28 49 12
29 49 389
30 49 496
31 49 984
32 49 497
33 48 721
34 48 622
35 48 282
36 48 280
37 48 245
38 48 558
39 48 683
40 47 753
41 47 40
42 47 288
43 46 123
44 46 841
45 46 946
46 46 445
47 46 764
48 46 876
49 46 485
50 46 477
51 46 684
52 45 161
53 45 122
54 45 91
55 44 776
56 44 910
57 44 736
58 44 974
59 44 150
60 44 411
61 44 471
62 44 948
63 44 228
64 43 378
65 43 266
66 43 449
67 43 332
68 43 552
69 42 100
70 42 793
71 42 453
72 42 120
73 42 801
74 42 192
75 42 679
76 42 651
77 42 227
78 42 881
79 42 24
80 41 140
81 41 691
82 41 242
83 41 836
84 41 638
85 41 625
86 41 833
87 41 425
88 41 185
89 40 756
90 40 575
91 40 976
92 39 36
93 39 998
94 39 564
95 39 660
96 39 531
97 39 439
98 39 375
99 38 531
100 38 957
101 38 389
102 37 742
103 37 189
104 36 694
105 36 287
106 36 86
107 36 126
108 36 401
109 35 346
110 35 817
111 35 574
112 35 353
113 34 53
114 34 14
115 34 168
116 34 23
117 34 751
118 34 939
119 33 830
120 33 398
121 33 648
122 33 478
123 33 437
124 33 539
125 32 153
126 32 186
127 32 706
128 32 894
129 32 780
130 31 1000
131 31 885
132 31 566
133 31 535
134 30 110
135 30 416
136 30 791
137 30 51
138 30 510
139 30 460
140 29 154
141 29 162
142 29 833
143 29 636
144 29 378
145 28 634
146 28 577
147 28 852
148 28 162
149 28 420
150 27 100
151 27 251
152 27 972
153 26 637
154 26 784
155 26 455
156 26 704
157 26 894
158 26 924
159 26 624
160 26 787
161 26 862
162 26 81
163 25 348
164 25 425
165 25 574
166 25 91
167 25 839
168 25 349
169 25 766
170 25 14
171 25 209
172 25 643
173 25 672
174 24 156
175 24 882
176 24 457
177 23 841
178 23 929
179 23 184
180 23 679
181 23 294
182 23 999
183 22 677
184 22 592
185 22 184
186 22 939
187 22 246
188 22 777
189 22 834
190 22 164
191 22 378
192 21 205
193 21 437
194 21 761
195 21 826
196 20 492
197 20 777
198 20 175
199 20 812
200 20 115
201 20 253
202 20 455
203 19 241
204 19 140
205 19 993
206 18 653
207 18 469
208 18 869
209 18 630
210 18 936
211 18 959
212 18 944
213 18 962
214 17 735
215 17 317
216 17 122
217 17 667
218 16 134
219 16 95
220 16 372
221 16 191
222 16 731
223 16 938
224 16 70
225 16 616
226 16 126
227 16 86
228 16 672
229 15 977
230 15 877
231 15 671
232 15 105
233 15 29
234 15 196
235 15 215
236 15 841
237 15 241
238 15 774
239 15 675
240 14 298
241 14 709
242 14 372
243 14 787
244 14 377
245 14 576
246 14 896
247 14 204
248 13 310
249 13 176
250 13 728
251 13 59
252 12 984
253 12 51
254 12 283
255 12 274
256 12 630
257 12 658
258 12 430
259 12 213
260 11 736
261 11 118
262 11 498
263 11 296
264 11 833
265 10 582
266 10 566
267 10 736
268 10 434
269 10 82
270 10 590
271 10 18
272 9 348
273 9 332
274 9 349
275 9 262
276 9 521
277 9 781
278 8 821
279 8 374
280 8 348
281 8 941
282 8 5
283 8 355
284 8 324
285 8 560
286 8 172
287 8 192
288 7 331
289 7 641
290 7 796
291 7 880
292 7 525
293 7 116
294 7 683
295 7 619
296 7 62
297 7 581
298 7 26
299 7 898
300 7 871
